p cnf 87 288
-3 1 0
-3 -2 0
-1 2 3 0
5 -3 0
5 -4 0
3 4 -5 0
-4 -6 0
4 -6 0
-7 -5 0
-7 -6 0
5 6 7 0
10 8 0
10 -9 0
-8 9 -10 0
-11 7 0
-11 10 0
-7 -10 11 0
-13 12 0
-13 -2 0
-12 2 13 0
14 3 0
14 13 0
-3 -13 -14 0
16 -14 0
16 15 0
14 -15 -16 0
17 -4 0
17 -2 0
4 2 -17 0
-17 18 -19 0
17 -18 -19 0
-17 -18 19 0
17 18 19 0
-1 19 -20 0
1 -19 -20 0
-1 -19 20 0
1 19 20 0
-22 -12 0
-22 -17 0
12 17 22 0
23 -21 0
23 -22 0
21 22 -23 0
24 -23 0
24 -21 0
23 21 -24 0
20 24 -25 0
-20 -24 -25 0
20 -24 25 0
-20 24 25 0
26 18 0
26 4 0
-18 -4 -26 0
4 -26 -27 0
-4 26 -27 0
4 26 27 0
-4 -26 27 0
28 25 0
28 -27 0
-25 27 -28 0
16 -28 -29 0
-16 28 -29 0
16 28 29 0
-16 -28 29 0
12 30 -31 0
-12 -30 -31 0
12 -30 31 0
-12 30 31 0
32 31 0
32 -30 0
-31 30 -32 0
-34 33 0
-34 -33 0
35 18 0
35 18 0
-18 -35 0
34 -35 -36 0
-34 35 -36 0
34 35 36 0
-34 -35 36 0
32 -36 -37 0
-32 36 -37 0
32 36 37 0
-32 -36 37 0
-38 19 0
-38 -4 0
-19 4 38 0
-38 17 -39 0
38 -17 -39 0
-38 -17 39 0
38 17 39 0
-40 39 0
-40 19 0
-39 -19 40 0
-41 37 0
-41 -40 0
-37 40 41 0
-42 -29 0
-42 41 0
29 -41 42 0
9 21 -43 0
-9 -21 -43 0
9 -21 43 0
-9 21 43 0
44 -1 0
44 31 0
1 -31 -44 0
43 -44 -45 0
-43 44 -45 0
43 44 45 0
-43 -44 45 0
-15 26 -46 0
15 -26 -46 0
-15 -26 46 0
15 26 46 0
45 46 -47 0
-45 -46 -47 0
45 -46 47 0
-45 46 47 0
-48 -30 0
-48 -15 0
30 15 48 0
-50 -48 0
-50 -49 0
48 49 50 0
-51 -19 0
-51 -50 0
19 50 51 0
47 -51 -52 0
-47 51 -52 0
47 51 52 0
-47 -51 52 0
-53 4 0
-53 8 0
-4 -8 53 0
54 52 0
54 -53 0
-52 53 -54 0
55 42 0
55 54 0
-42 -54 -55 0
8 -33 -56 0
-8 33 -56 0
8 33 56 0
-8 -33 56 0
-57 -1 0
-57 -56 0
1 56 57 0
2 18 -58 0
-2 -18 -58 0
2 -18 58 0
-2 18 58 0
-4 58 -59 0
4 -58 -59 0
-4 -58 59 0
4 58 59 0
61 -2 0
61 3 0
2 -3 -61 0
-62 61 0
-62 12 0
-61 -12 62 0
-63 -60 0
-63 -62 0
60 62 63 0
-64 59 0
-64 63 0
-59 -63 64 0
-65 57 0
-65 64 0
-57 -64 65 0
-67 58 0
-67 -66 0
-58 66 67 0
68 -18 0
68 2 0
18 -2 -68 0
-69 -67 0
-69 -68 0
67 68 69 0
-70 -65 0
-70 -69 0
65 69 70 0
71 -62 0
71 -49 0
62 49 -71 0
50 71 -72 0
-50 -71 -72 0
50 -71 72 0
-50 71 72 0
73 70 0
73 72 0
-70 -72 -73 0
-55 -73 -74 0
55 73 -74 0
-55 73 74 0
55 -73 74 0
-75 59 0
-75 19 0
-59 -19 75 0
76 3 0
76 -18 0
-3 18 -76 0
-77 19 0
-77 34 0
-19 -34 77 0
77 -1 -78 0
-77 1 -78 0
77 1 78 0
-77 -1 78 0
-79 78 0
-79 -62 0
-78 62 79 0
80 26 0
80 56 0
-26 -56 -80 0
81 -79 0
81 -80 0
79 80 -81 0
76 -81 -82 0
-76 81 -82 0
76 81 82 0
-76 -81 82 0
-83 75 0
-83 82 0
-75 -82 83 0
-84 -71 0
-84 48 0
71 -48 84 0
-83 -84 -85 0
83 84 -85 0
-83 84 85 0
83 -84 85 0
-86 74 0
-86 -85 0
-74 85 86 0
-87 -11 0
-87 86 0
11 -86 87 0
-16 -38 -12 -79 -45 0
12 83 0
-42 24 -5 77 49 0
-51 -5 34 0
-61 63 -62 -67 -36 19 0
74 45 -71 0
69 -50 -10 -31 0
-27 -49 -4 69 39 1 0
-58 -23 -86 32 0
48 -37 -50 63 -23 43 0
67 -5 22 69 35 -71 0
-56 23 -4 48 -11 0
-53 25 69 5 -31 0
-21 35 5 38 0
23 86 51 0
70 77 -31 -46 32 -53 0
78 -13 0
-41 69 -64 10 12 58 0
-69 68 -58 40 -8 34 0
-57 -28 19 11 3 0
60 -46 11 0
-18 -51 -82 -19 28 73 0
45 26 17 0
-31 -61 -81 0
-58 -16 5 18 0
23 39 30 -26 -16 -71 0
-81 -33 -73 19 17 -25 0
-66 -5 -50 0
64 -24 -54 -41 -44 0
-1 12 7 68 -14 -2 0
24 4 0
-85 -34 -62 -70 7 0
-76 82 -70 72 -53 0
49 42 0
-73 -82 57 0
29 67 -87 -68 0
16 74 -1 -39 0
78 42 75 0
81 -37 45 -12 0
-24 18 0
16 -15 -49 -9 0
40 -8 0
-27 -3 -57 0
27 -5 71 48 16 -6 0
-43 85 51 0
24 -48 -64 -9 53 0
-59 -63 6 0
32 52 -16 -72 0
87 0
